AES/1_3_4/ssaes_r1-20_c3_rw1_e4_f0_k1-20_aes_canon_box_aes_mc_bidirectional/ExperimentMinisat_r13_k17cnf_2011-10-29-152214/Result
WARNING: for repeatability, setting FPU to use double precision
============================[ Problem Statistics ]=============================
|                                                                             |
|  Number of variables:          1596                                         |
|  Number of clauses:            9460                                         |
|  Parse time:                   0.00 s                                       |
|  Eliminated clauses:           0.01 Mb                                      |
|  Simplification time:          0.01 s                                       |
|                                                                             |
=============================[ Search Statistics ]==============================
| Conflicts  |          ORIGINAL         |          LEARNT          | Progress |
|            |    Vars  Clauses Literals |    Limit  Clauses Lit/Cl |          |
================================================================================
|        100 |    1300     8660    26892 |     3175      100     22 |  4.763 % |
|        250 |    1300     8660    26892 |     3492      250     22 |  4.762 % |
|        475 |    1300     8660    26892 |     3842      475     20 |  4.762 % |
===============================================================================
restarts              : 6
conflicts             : 756            (9001 /sec)
decisions             : 953            (0.00 % random) (11347 /sec)
propagations          : 516760         (6152857 /sec)
conflict literals     : 14981          (58.23 % deleted)
Memory used           : 9.00 MB
CPU time              : 0.083987 s

SATISFIABLE
